c " random instance " 
p edges 200 4078
e 1 2
e 1 3
e 1 9
e 1 12
e 1 13
e 1 26
e 1 28
e 1 29
e 1 30
e 1 34
e 1 39
e 1 43
e 1 48
e 1 53
e 1 58
e 1 66
e 1 67
e 1 68
e 1 69
e 1 71
e 1 72
e 1 76
e 1 77
e 1 79
e 1 83
e 1 90
e 1 92
e 1 99
e 1 100
e 1 106
e 1 112
e 1 115
e 1 117
e 1 119
e 1 123
e 1 137
e 1 139
e 1 140
e 1 145
e 1 150
e 1 154
e 1 158
e 1 174
e 1 185
e 1 186
e 1 187
e 1 193
e 1 199
e 1 200
e 2 3
e 2 7
e 2 17
e 2 20
e 2 22
e 2 23
e 2 28
e 2 29
e 2 33
e 2 34
e 2 41
e 2 44
e 2 49
e 2 57
e 2 58
e 2 61
e 2 62
e 2 64
e 2 68
e 2 69
e 2 71
e 2 77
e 2 99
e 2 100
e 2 105
e 2 107
e 2 109
e 2 110
e 2 111
e 2 117
e 2 119
e 2 124
e 2 130
e 2 134
e 2 140
e 2 142
e 2 144
e 2 145
e 2 147
e 2 149
e 2 156
e 2 163
e 2 169
e 2 175
e 2 179
e 2 180
e 2 183
e 2 184
e 2 191
e 2 193
e 2 199
e 2 200
e 3 7
e 3 10
e 3 12
e 3 15
e 3 18
e 3 21
e 3 22
e 3 27
e 3 30
e 3 31
e 3 38
e 3 43
e 3 50
e 3 58
e 3 59
e 3 61
e 3 62
e 3 70
e 3 75
e 3 77
e 3 82
e 3 84
e 3 88
e 3 90
e 3 91
e 3 96
e 3 104
e 3 106
e 3 107
e 3 109
e 3 110
e 3 115
e 3 119
e 3 123
e 3 130
e 3 132
e 3 143
e 3 144
e 3 145
e 3 147
e 3 154
e 3 164
e 3 165
e 3 170
e 3 171
e 3 175
e 3 177
e 3 182
e 3 184
e 3 194
e 3 198
e 4 10
e 4 11
e 4 15
e 4 23
e 4 29
e 4 34
e 4 40
e 4 49
e 4 58
e 4 69
e 4 72
e 4 75
e 4 78
e 4 79
e 4 82
e 4 94
e 4 105
e 4 113
e 4 117
e 4 123
e 4 144
e 4 151
e 4 152
e 4 153
e 4 155
e 4 160
e 4 161
e 4 164
e 4 167
e 4 169
e 4 170
e 4 174
e 4 181
e 4 184
e 4 186
e 4 191
e 4 193
e 4 197
e 4 198
e 5 15
e 5 16
e 5 19
e 5 22
e 5 24
e 5 26
e 5 28
e 5 46
e 5 50
e 5 58
e 5 59
e 5 64
e 5 65
e 5 72
e 5 74
e 5 84
e 5 88
e 5 92
e 5 97
e 5 98
e 5 101
e 5 106
e 5 108
e 5 121
e 5 129
e 5 130
e 5 136
e 5 138
e 5 144
e 5 167
e 5 175
e 5 177
e 5 183
e 5 189
e 5 192
e 5 197
e 6 16
e 6 27
e 6 28
e 6 31
e 6 41
e 6 44
e 6 45
e 6 52
e 6 53
e 6 61
e 6 65
e 6 80
e 6 85
e 6 86
e 6 87
e 6 90
e 6 93
e 6 96
e 6 103
e 6 109
e 6 112
e 6 115
e 6 118
e 6 120
e 6 125
e 6 137
e 6 150
e 6 151
e 6 160
e 6 161
e 6 162
e 6 163
e 6 165
e 6 166
e 6 172
e 6 175
e 6 181
e 6 190
e 6 193
e 6 199
e 7 9
e 7 10
e 7 18
e 7 22
e 7 24
e 7 27
e 7 29
e 7 43
e 7 47
e 7 51
e 7 57
e 7 62
e 7 64
e 7 85
e 7 109
e 7 120
e 7 138
e 7 139
e 7 142
e 7 146
e 7 147
e 7 154
e 7 156
e 7 158
e 7 161
e 7 166
e 7 169
e 7 174
e 7 176
e 7 186
e 7 194
e 7 195
e 8 21
e 8 22
e 8 30
e 8 34
e 8 40
e 8 42
e 8 53
e 8 56
e 8 58
e 8 75
e 8 95
e 8 98
e 8 100
e 8 102
e 8 111
e 8 114
e 8 124
e 8 126
e 8 127
e 8 129
e 8 130
e 8 131
e 8 132
e 8 136
e 8 141
e 8 143
e 8 149
e 8 152
e 8 153
e 8 159
e 8 161
e 8 167
e 8 181
e 8 185
e 8 190
e 8 191
e 8 193
e 9 11
e 9 20
e 9 23
e 9 40
e 9 41
e 9 45
e 9 50
e 9 51
e 9 52
e 9 57
e 9 60
e 9 64
e 9 69
e 9 93
e 9 95
e 9 98
e 9 99
e 9 102
e 9 112
e 9 121
e 9 128
e 9 134
e 9 137
e 9 145
e 9 146
e 9 151
e 9 154
e 9 173
e 9 183
e 9 187
e 9 188
e 9 198
e 10 13
e 10 14
e 10 16
e 10 20
e 10 26
e 10 28
e 10 29
e 10 30
e 10 32
e 10 37
e 10 40
e 10 43
e 10 44
e 10 52
e 10 57
e 10 69
e 10 85
e 10 92
e 10 95
e 10 102
e 10 111
e 10 113
e 10 119
e 10 126
e 10 127
e 10 128
e 10 134
e 10 149
e 10 153
e 10 157
e 10 158
e 10 163
e 10 164
e 10 169
e 10 171
e 10 174
e 10 177
e 10 180
e 10 186
e 10 187
e 10 188
e 10 191
e 10 192
e 10 199
e 11 13
e 11 14
e 11 16
e 11 17
e 11 20
e 11 28
e 11 30
e 11 31
e 11 36
e 11 37
e 11 41
e 11 44
e 11 54
e 11 62
e 11 63
e 11 67
e 11 76
e 11 77
e 11 81
e 11 89
e 11 92
e 11 94
e 11 103
e 11 104
e 11 112
e 11 113
e 11 117
e 11 118
e 11 120
e 11 134
e 11 135
e 11 139
e 11 141
e 11 144
e 11 145
e 11 146
e 11 150
e 11 162
e 11 169
e 11 170
e 11 177
e 11 189
e 11 191
e 11 194
e 11 195
e 11 198
e 11 200
e 12 14
e 12 18
e 12 32
e 12 42
e 12 45
e 12 46
e 12 62
e 12 72
e 12 79
e 12 82
e 12 86
e 12 87
e 12 90
e 12 99
e 12 101
e 12 110
e 12 118
e 12 121
e 12 123
e 12 127
e 12 129
e 12 135
e 12 147
e 12 149
e 12 160
e 12 165
e 12 167
e 12 171
e 12 176
e 12 177
e 12 183
e 12 188
e 12 191
e 12 195
e 12 196
e 13 14
e 13 17
e 13 21
e 13 24
e 13 26
e 13 32
e 13 34
e 13 36
e 13 43
e 13 46
e 13 58
e 13 61
e 13 63
e 13 65
e 13 67
e 13 68
e 13 72
e 13 86
e 13 91
e 13 94
e 13 95
e 13 98
e 13 100
e 13 105
e 13 106
e 13 118
e 13 122
e 13 127
e 13 131
e 13 135
e 13 136
e 13 138
e 13 139
e 13 141
e 13 147
e 13 151
e 13 153
e 13 159
e 13 174
e 13 175
e 13 196
e 13 200
e 14 15
e 14 16
e 14 22
e 14 23
e 14 31
e 14 45
e 14 52
e 14 54
e 14 59
e 14 61
e 14 67
e 14 72
e 14 77
e 14 79
e 14 83
e 14 89
e 14 94
e 14 103
e 14 104
e 14 106
e 14 114
e 14 118
e 14 119
e 14 126
e 14 127
e 14 129
e 14 137
e 14 138
e 14 140
e 14 141
e 14 142
e 14 157
e 14 162
e 14 166
e 14 182
e 14 196
e 14 197
e 15 29
e 15 31
e 15 36
e 15 37
e 15 44
e 15 45
e 15 55
e 15 58
e 15 75
e 15 76
e 15 78
e 15 87
e 15 90
e 15 94
e 15 98
e 15 104
e 15 108
e 15 112
e 15 117
e 15 138
e 15 139
e 15 142
e 15 143
e 15 157
e 15 170
e 15 173
e 15 176
e 15 178
e 15 200
e 16 18
e 16 20
e 16 23
e 16 38
e 16 43
e 16 46
e 16 48
e 16 49
e 16 51
e 16 65
e 16 68
e 16 82
e 16 88
e 16 90
e 16 92
e 16 108
e 16 116
e 16 117
e 16 120
e 16 121
e 16 126
e 16 127
e 16 137
e 16 148
e 16 150
e 16 157
e 16 161
e 16 176
e 16 180
e 16 184
e 16 186
e 16 189
e 16 193
e 17 20
e 17 27
e 17 31
e 17 33
e 17 35
e 17 38
e 17 42
e 17 47
e 17 51
e 17 53
e 17 61
e 17 65
e 17 70
e 17 72
e 17 75
e 17 78
e 17 83
e 17 89
e 17 95
e 17 97
e 17 98
e 17 118
e 17 120
e 17 128
e 17 131
e 17 132
e 17 136
e 17 142
e 17 148
e 17 158
e 17 159
e 17 169
e 17 174
e 17 179
e 17 180
e 17 182
e 17 190
e 17 193
e 18 19
e 18 29
e 18 32
e 18 33
e 18 50
e 18 52
e 18 65
e 18 71
e 18 76
e 18 77
e 18 82
e 18 88
e 18 91
e 18 100
e 18 101
e 18 104
e 18 106
e 18 112
e 18 113
e 18 114
e 18 115
e 18 123
e 18 124
e 18 138
e 18 144
e 18 149
e 18 150
e 18 154
e 18 159
e 18 165
e 18 168
e 18 170
e 18 171
e 18 172
e 18 176
e 18 187
e 18 190
e 18 192
e 18 195
e 18 200
e 19 35
e 19 37
e 19 38
e 19 43
e 19 45
e 19 47
e 19 49
e 19 50
e 19 70
e 19 79
e 19 84
e 19 99
e 19 101
e 19 103
e 19 112
e 19 113
e 19 117
e 19 119
e 19 121
e 19 131
e 19 136
e 19 139
e 19 140
e 19 143
e 19 152
e 19 153
e 19 156
e 19 159
e 19 162
e 19 163
e 19 164
e 19 171
e 19 172
e 19 185
e 19 193
e 19 194
e 19 200
e 20 28
e 20 30
e 20 34
e 20 39
e 20 45
e 20 53
e 20 58
e 20 64
e 20 66
e 20 67
e 20 68
e 20 69
e 20 83
e 20 84
e 20 86
e 20 91
e 20 100
e 20 103
e 20 113
e 20 116
e 20 119
e 20 121
e 20 124
e 20 125
e 20 126
e 20 133
e 20 135
e 20 137
e 20 151
e 20 161
e 20 167
e 20 168
e 20 172
e 20 174
e 20 183
e 20 189
e 20 194
e 20 197
e 21 22
e 21 26
e 21 27
e 21 31
e 21 33
e 21 34
e 21 40
e 21 45
e 21 46
e 21 49
e 21 53
e 21 61
e 21 64
e 21 71
e 21 74
e 21 78
e 21 94
e 21 108
e 21 110
e 21 113
e 21 128
e 21 130
e 21 131
e 21 135
e 21 136
e 21 140
e 21 141
e 21 143
e 21 148
e 21 157
e 21 165
e 21 167
e 21 172
e 21 174
e 21 178
e 21 183
e 21 185
e 21 196
e 21 197
e 22 26
e 22 30
e 22 31
e 22 32
e 22 37
e 22 43
e 22 45
e 22 50
e 22 54
e 22 56
e 22 58
e 22 73
e 22 85
e 22 88
e 22 93
e 22 110
e 22 122
e 22 127
e 22 135
e 22 149
e 22 152
e 22 158
e 22 159
e 22 165
e 22 170
e 22 171
e 22 183
e 22 189
e 22 194
e 22 195
e 22 200
e 23 25
e 23 29
e 23 37
e 23 48
e 23 49
e 23 58
e 23 63
e 23 66
e 23 67
e 23 79
e 23 80
e 23 85
e 23 86
e 23 89
e 23 91
e 23 94
e 23 113
e 23 114
e 23 117
e 23 126
e 23 128
e 23 139
e 23 152
e 23 156
e 23 158
e 23 163
e 23 165
e 23 167
e 23 173
e 23 176
e 23 177
e 23 179
e 23 191
e 23 197
e 23 199
e 23 200
e 24 28
e 24 30
e 24 32
e 24 35
e 24 40
e 24 45
e 24 51
e 24 53
e 24 57
e 24 61
e 24 71
e 24 73
e 24 79
e 24 82
e 24 88
e 24 89
e 24 99
e 24 100
e 24 101
e 24 102
e 24 105
e 24 111
e 24 118
e 24 125
e 24 127
e 24 128
e 24 131
e 24 134
e 24 135
e 24 136
e 24 138
e 24 142
e 24 144
e 24 149
e 24 158
e 24 178
e 24 188
e 24 200
e 25 30
e 25 35
e 25 36
e 25 48
e 25 49
e 25 52
e 25 55
e 25 67
e 25 74
e 25 75
e 25 76
e 25 84
e 25 85
e 25 90
e 25 91
e 25 93
e 25 95
e 25 96
e 25 102
e 25 105
e 25 106
e 25 107
e 25 109
e 25 114
e 25 126
e 25 133
e 25 138
e 25 145
e 25 162
e 25 165
e 25 172
e 25 176
e 25 189
e 26 33
e 26 34
e 26 37
e 26 38
e 26 41
e 26 42
e 26 44
e 26 47
e 26 51
e 26 52
e 26 53
e 26 62
e 26 63
e 26 67
e 26 74
e 26 91
e 26 92
e 26 93
e 26 104
e 26 105
e 26 111
e 26 112
e 26 114
e 26 118
e 26 121
e 26 127
e 26 133
e 26 141
e 26 145
e 26 148
e 26 151
e 26 154
e 26 156
e 26 165
e 26 168
e 26 176
e 26 178
e 26 192
e 26 200
e 27 28
e 27 35
e 27 37
e 27 38
e 27 47
e 27 57
e 27 60
e 27 73
e 27 74
e 27 77
e 27 79
e 27 86
e 27 93
e 27 96
e 27 104
e 27 111
e 27 112
e 27 114
e 27 127
e 27 129
e 27 130
e 27 131
e 27 133
e 27 135
e 27 141
e 27 144
e 27 148
e 27 151
e 27 164
e 27 168
e 27 169
e 27 171
e 27 177
e 27 194
e 27 198
e 28 35
e 28 39
e 28 50
e 28 52
e 28 70
e 28 71
e 28 73
e 28 88
e 28 93
e 28 99
e 28 105
e 28 113
e 28 117
e 28 119
e 28 121
e 28 122
e 28 124
e 28 125
e 28 127
e 28 128
e 28 132
e 28 136
e 28 138
e 28 143
e 28 152
e 28 161
e 28 173
e 28 176
e 28 187
e 28 189
e 28 192
e 29 30
e 29 41
e 29 43
e 29 46
e 29 52
e 29 72
e 29 77
e 29 79
e 29 82
e 29 95
e 29 97
e 29 99
e 29 100
e 29 102
e 29 107
e 29 110
e 29 111
e 29 122
e 29 127
e 29 128
e 29 136
e 29 142
e 29 144
e 29 156
e 29 158
e 29 163
e 29 166
e 29 173
e 29 176
e 29 179
e 29 182
e 29 183
e 29 184
e 29 187
e 30 39
e 30 43
e 30 46
e 30 53
e 30 57
e 30 60
e 30 64
e 30 69
e 30 70
e 30 79
e 30 81
e 30 86
e 30 90
e 30 91
e 30 99
e 30 100
e 30 121
e 30 124
e 30 126
e 30 128
e 30 132
e 30 136
e 30 139
e 30 147
e 30 162
e 30 163
e 30 170
e 30 177
e 30 180
e 30 190
e 30 198
e 31 41
e 31 48
e 31 50
e 31 51
e 31 56
e 31 69
e 31 77
e 31 81
e 31 91
e 31 93
e 31 96
e 31 106
e 31 114
e 31 116
e 31 117
e 31 119
e 31 121
e 31 125
e 31 128
e 31 130
e 31 131
e 31 133
e 31 138
e 31 139
e 31 144
e 31 148
e 31 150
e 31 157
e 31 161
e 31 163
e 31 166
e 31 167
e 31 169
e 31 177
e 31 186
e 31 188
e 31 189
e 31 190
e 31 197
e 31 198
e 31 199
e 32 34
e 32 45
e 32 47
e 32 49
e 32 57
e 32 58
e 32 66
e 32 68
e 32 77
e 32 82
e 32 90
e 32 97
e 32 100
e 32 110
e 32 119
e 32 127
e 32 128
e 32 132
e 32 133
e 32 134
e 32 140
e 32 143
e 32 144
e 32 146
e 32 147
e 32 149
e 32 157
e 32 161
e 32 169
e 32 175
e 32 178
e 32 181
e 32 184
e 32 198
e 33 36
e 33 39
e 33 41
e 33 50
e 33 56
e 33 58
e 33 80
e 33 81
e 33 85
e 33 91
e 33 95
e 33 105
e 33 110
e 33 112
e 33 118
e 33 119
e 33 136
e 33 137
e 33 138
e 33 139
e 33 141
e 33 147
e 33 174
e 33 192
e 33 197
e 34 35
e 34 38
e 34 42
e 34 44
e 34 53
e 34 62
e 34 66
e 34 72
e 34 74
e 34 80
e 34 91
e 34 95
e 34 96
e 34 98
e 34 99
e 34 104
e 34 117
e 34 118
e 34 119
e 34 125
e 34 127
e 34 130
e 34 141
e 34 146
e 34 149
e 34 150
e 34 152
e 34 153
e 34 154
e 34 158
e 34 166
e 34 174
e 34 175
e 34 184
e 34 200
e 35 36
e 35 40
e 35 43
e 35 52
e 35 56
e 35 57
e 35 62
e 35 63
e 35 68
e 35 71
e 35 75
e 35 80
e 35 81
e 35 82
e 35 93
e 35 96
e 35 98
e 35 104
e 35 109
e 35 114
e 35 120
e 35 127
e 35 130
e 35 135
e 35 138
e 35 147
e 35 148
e 35 152
e 35 158
e 35 170
e 35 173
e 35 183
e 35 185
e 35 191
e 35 195
e 35 198
e 35 200
e 36 38
e 36 43
e 36 48
e 36 49
e 36 54
e 36 59
e 36 67
e 36 75
e 36 76
e 36 80
e 36 83
e 36 84
e 36 85
e 36 86
e 36 90
e 36 103
e 36 104
e 36 114
e 36 119
e 36 122
e 36 123
e 36 124
e 36 127
e 36 130
e 36 134
e 36 147
e 36 153
e 36 157
e 36 160
e 36 166
e 36 171
e 36 175
e 36 178
e 36 182
e 36 184
e 36 200
e 37 40
e 37 44
e 37 47
e 37 55
e 37 69
e 37 73
e 37 76
e 37 82
e 37 87
e 37 89
e 37 92
e 37 94
e 37 96
e 37 106
e 37 119
e 37 123
e 37 125
e 37 137
e 37 140
e 37 141
e 37 145
e 37 149
e 37 151
e 37 160
e 37 168
e 37 174
e 37 176
e 37 185
e 37 189
e 37 191
e 37 192
e 37 195
e 38 47
e 38 49
e 38 75
e 38 84
e 38 91
e 38 93
e 38 94
e 38 101
e 38 102
e 38 107
e 38 112
e 38 115
e 38 127
e 38 133
e 38 156
e 38 159
e 38 161
e 38 166
e 38 175
e 38 184
e 38 188
e 38 191
e 39 49
e 39 54
e 39 67
e 39 70
e 39 72
e 39 75
e 39 81
e 39 84
e 39 85
e 39 103
e 39 104
e 39 110
e 39 111
e 39 122
e 39 123
e 39 126
e 39 127
e 39 128
e 39 131
e 39 141
e 39 149
e 39 152
e 39 171
e 39 178
e 39 183
e 39 194
e 40 46
e 40 50
e 40 54
e 40 65
e 40 81
e 40 89
e 40 91
e 40 98
e 40 106
e 40 109
e 40 114
e 40 116
e 40 118
e 40 124
e 40 128
e 40 129
e 40 131
e 40 132
e 40 136
e 40 138
e 40 139
e 40 140
e 40 142
e 40 144
e 40 146
e 40 148
e 40 153
e 40 158
e 40 162
e 40 168
e 40 173
e 40 183
e 40 184
e 40 198
e 40 199
e 41 49
e 41 53
e 41 60
e 41 61
e 41 69
e 41 71
e 41 74
e 41 75
e 41 83
e 41 96
e 41 106
e 41 122
e 41 123
e 41 127
e 41 128
e 41 129
e 41 133
e 41 141
e 41 160
e 41 161
e 41 162
e 41 163
e 41 165
e 41 167
e 41 169
e 41 180
e 41 185
e 41 188
e 41 190
e 41 192
e 41 193
e 41 196
e 42 44
e 42 48
e 42 49
e 42 51
e 42 53
e 42 55
e 42 75
e 42 78
e 42 80
e 42 93
e 42 111
e 42 126
e 42 129
e 42 132
e 42 136
e 42 139
e 42 144
e 42 150
e 42 153
e 42 157
e 42 163
e 42 170
e 42 173
e 42 174
e 42 175
e 42 178
e 42 187
e 42 194
e 43 45
e 43 50
e 43 53
e 43 58
e 43 61
e 43 67
e 43 74
e 43 75
e 43 77
e 43 78
e 43 79
e 43 80
e 43 81
e 43 83
e 43 89
e 43 93
e 43 98
e 43 101
e 43 106
e 43 115
e 43 127
e 43 128
e 43 129
e 43 142
e 43 144
e 43 152
e 43 173
e 43 182
e 43 183
e 43 188
e 43 194
e 43 197
e 43 198
e 44 48
e 44 52
e 44 62
e 44 65
e 44 66
e 44 68
e 44 70
e 44 73
e 44 78
e 44 85
e 44 94
e 44 99
e 44 106
e 44 111
e 44 112
e 44 114
e 44 137
e 44 138
e 44 141
e 44 162
e 44 168
e 44 169
e 44 177
e 44 180
e 44 182
e 44 184
e 44 186
e 44 187
e 44 188
e 44 189
e 44 190
e 44 192
e 44 196
e 44 199
e 44 200
e 45 67
e 45 71
e 45 73
e 45 83
e 45 85
e 45 86
e 45 92
e 45 93
e 45 94
e 45 97
e 45 105
e 45 108
e 45 111
e 45 112
e 45 117
e 45 124
e 45 132
e 45 135
e 45 139
e 45 142
e 45 149
e 45 150
e 45 153
e 45 156
e 45 157
e 45 159
e 45 160
e 45 165
e 45 172
e 45 175
e 45 180
e 45 188
e 45 189
e 45 198
e 46 51
e 46 55
e 46 56
e 46 61
e 46 72
e 46 80
e 46 83
e 46 85
e 46 91
e 46 93
e 46 94
e 46 99
e 46 104
e 46 105
e 46 108
e 46 111
e 46 116
e 46 118
e 46 125
e 46 128
e 46 137
e 46 138
e 46 139
e 46 141
e 46 145
e 46 148
e 46 152
e 46 161
e 46 162
e 46 163
e 46 164
e 46 174
e 46 175
e 46 181
e 46 188
e 46 193
e 46 198
e 47 52
e 47 55
e 47 58
e 47 59
e 47 66
e 47 67
e 47 69
e 47 72
e 47 83
e 47 87
e 47 93
e 47 98
e 47 105
e 47 107
e 47 109
e 47 119
e 47 120
e 47 124
e 47 126
e 47 129
e 47 131
e 47 136
e 47 137
e 47 139
e 47 140
e 47 146
e 47 147
e 47 158
e 47 159
e 47 171
e 47 174
e 47 175
e 47 180
e 47 185
e 47 188
e 47 190
e 47 191
e 47 196
e 47 197
e 47 200
e 48 53
e 48 54
e 48 56
e 48 61
e 48 63
e 48 66
e 48 69
e 48 74
e 48 76
e 48 77
e 48 79
e 48 80
e 48 105
e 48 129
e 48 132
e 48 137
e 48 140
e 48 145
e 48 148
e 48 151
e 48 154
e 48 157
e 48 161
e 48 162
e 48 171
e 48 176
e 48 178
e 48 184
e 48 188
e 48 189
e 48 195
e 49 57
e 49 69
e 49 70
e 49 72
e 49 75
e 49 76
e 49 83
e 49 84
e 49 87
e 49 88
e 49 95
e 49 96
e 49 106
e 49 113
e 49 126
e 49 134
e 49 138
e 49 143
e 49 145
e 49 148
e 49 151
e 49 159
e 49 161
e 49 171
e 49 178
e 49 179
e 49 180
e 49 181
e 49 185
e 49 189
e 49 192
e 49 195
e 50 55
e 50 57
e 50 58
e 50 67
e 50 69
e 50 73
e 50 75
e 50 78
e 50 83
e 50 87
e 50 97
e 50 98
e 50 104
e 50 105
e 50 106
e 50 108
e 50 109
e 50 110
e 50 114
e 50 119
e 50 121
e 50 141
e 50 143
e 50 146
e 50 149
e 50 153
e 50 155
e 50 156
e 50 162
e 50 163
e 50 164
e 50 169
e 50 173
e 50 184
e 50 191
e 50 192
e 50 197
e 51 54
e 51 55
e 51 58
e 51 61
e 51 62
e 51 64
e 51 68
e 51 77
e 51 81
e 51 85
e 51 87
e 51 91
e 51 96
e 51 106
e 51 107
e 51 112
e 51 122
e 51 131
e 51 137
e 51 138
e 51 140
e 51 150
e 51 152
e 51 160
e 51 169
e 51 183
e 51 191
e 51 192
e 51 197
e 52 54
e 52 77
e 52 83
e 52 84
e 52 85
e 52 89
e 52 90
e 52 93
e 52 97
e 52 98
e 52 100
e 52 104
e 52 105
e 52 114
e 52 115
e 52 122
e 52 128
e 52 132
e 52 135
e 52 139
e 52 142
e 52 146
e 52 147
e 52 168
e 52 169
e 52 173
e 52 189
e 52 192
e 52 195
e 52 196
e 53 55
e 53 60
e 53 64
e 53 70
e 53 86
e 53 87
e 53 101
e 53 108
e 53 109
e 53 112
e 53 116
e 53 125
e 53 130
e 53 133
e 53 135
e 53 138
e 53 146
e 53 147
e 53 149
e 53 150
e 53 154
e 53 162
e 53 166
e 53 170
e 53 180
e 53 184
e 53 192
e 53 193
e 53 194
e 53 195
e 53 197
e 54 56
e 54 67
e 54 71
e 54 81
e 54 83
e 54 85
e 54 87
e 54 90
e 54 93
e 54 98
e 54 102
e 54 110
e 54 112
e 54 117
e 54 121
e 54 126
e 54 133
e 54 134
e 54 138
e 54 140
e 54 146
e 54 165
e 54 169
e 54 172
e 54 185
e 54 188
e 54 199
e 55 56
e 55 59
e 55 63
e 55 67
e 55 68
e 55 72
e 55 74
e 55 81
e 55 94
e 55 95
e 55 97
e 55 100
e 55 102
e 55 104
e 55 106
e 55 107
e 55 109
e 55 113
e 55 119
e 55 122
e 55 126
e 55 133
e 55 137
e 55 138
e 55 140
e 55 141
e 55 145
e 55 146
e 55 147
e 55 150
e 55 157
e 55 159
e 55 166
e 55 167
e 55 172
e 55 173
e 55 179
e 55 180
e 55 188
e 55 190
e 55 193
e 55 194
e 56 58
e 56 63
e 56 64
e 56 68
e 56 70
e 56 72
e 56 77
e 56 83
e 56 85
e 56 86
e 56 93
e 56 99
e 56 108
e 56 109
e 56 120
e 56 121
e 56 122
e 56 130
e 56 132
e 56 133
e 56 135
e 56 138
e 56 143
e 56 145
e 56 147
e 56 154
e 56 163
e 56 164
e 56 166
e 56 168
e 56 170
e 56 184
e 56 187
e 56 189
e 57 65
e 57 70
e 57 71
e 57 77
e 57 83
e 57 84
e 57 86
e 57 90
e 57 92
e 57 95
e 57 99
e 57 104
e 57 108
e 57 109
e 57 133
e 57 140
e 57 150
e 57 165
e 57 168
e 57 181
e 58 64
e 58 68
e 58 70
e 58 71
e 58 81
e 58 83
e 58 85
e 58 98
e 58 102
e 58 110
e 58 112
e 58 114
e 58 116
e 58 117
e 58 135
e 58 141
e 58 144
e 58 152
e 58 159
e 58 162
e 58 165
e 58 166
e 58 176
e 58 180
e 58 186
e 58 192
e 58 194
e 58 197
e 59 61
e 59 69
e 59 75
e 59 82
e 59 85
e 59 89
e 59 91
e 59 98
e 59 110
e 59 113
e 59 127
e 59 129
e 59 133
e 59 136
e 59 138
e 59 140
e 59 155
e 59 156
e 59 164
e 59 165
e 59 173
e 59 178
e 59 179
e 59 193
e 60 72
e 60 73
e 60 74
e 60 80
e 60 87
e 60 95
e 60 107
e 60 131
e 60 138
e 60 140
e 60 142
e 60 146
e 60 151
e 60 154
e 60 156
e 60 159
e 60 167
e 60 171
e 60 178
e 60 189
e 60 190
e 60 197
e 60 198
e 61 65
e 61 70
e 61 73
e 61 75
e 61 80
e 61 83
e 61 85
e 61 90
e 61 99
e 61 102
e 61 106
e 61 107
e 61 108
e 61 109
e 61 119
e 61 121
e 61 123
e 61 125
e 61 128
e 61 146
e 61 148
e 61 151
e 61 153
e 61 155
e 61 157
e 61 162
e 61 183
e 61 192
e 62 64
e 62 71
e 62 73
e 62 79
e 62 80
e 62 81
e 62 91
e 62 93
e 62 97
e 62 100
e 62 101
e 62 103
e 62 105
e 62 114
e 62 128
e 62 129
e 62 133
e 62 139
e 62 143
e 62 149
e 62 150
e 62 152
e 62 159
e 62 167
e 62 169
e 62 171
e 62 173
e 62 200
e 63 64
e 63 65
e 63 69
e 63 73
e 63 80
e 63 85
e 63 89
e 63 91
e 63 92
e 63 106
e 63 109
e 63 122
e 63 123
e 63 124
e 63 131
e 63 136
e 63 137
e 63 138
e 63 140
e 63 141
e 63 143
e 63 145
e 63 146
e 63 149
e 63 155
e 63 159
e 63 160
e 63 164
e 63 166
e 63 168
e 63 172
e 63 173
e 63 180
e 63 187
e 63 189
e 63 190
e 63 193
e 63 198
e 64 67
e 64 72
e 64 77
e 64 82
e 64 87
e 64 101
e 64 105
e 64 117
e 64 121
e 64 125
e 64 130
e 64 147
e 64 152
e 64 158
e 64 161
e 64 176
e 64 177
e 64 184
e 64 193
e 64 197
e 65 68
e 65 70
e 65 73
e 65 83
e 65 84
e 65 91
e 65 96
e 65 97
e 65 100
e 65 106
e 65 108
e 65 109
e 65 111
e 65 114
e 65 115
e 65 119
e 65 122
e 65 137
e 65 143
e 65 148
e 65 154
e 65 160
e 65 164
e 65 165
e 65 168
e 65 173
e 65 175
e 65 186
e 65 189
e 65 190
e 65 193
e 65 200
e 66 72
e 66 85
e 66 86
e 66 89
e 66 92
e 66 93
e 66 94
e 66 97
e 66 106
e 66 108
e 66 114
e 66 115
e 66 119
e 66 129
e 66 130
e 66 142
e 66 146
e 66 151
e 66 154
e 66 160
e 66 161
e 66 162
e 66 164
e 66 166
e 66 167
e 66 169
e 66 175
e 66 180
e 66 183
e 66 190
e 67 73
e 67 85
e 67 92
e 67 102
e 67 105
e 67 114
e 67 115
e 67 116
e 67 123
e 67 125
e 67 127
e 67 128
e 67 129
e 67 136
e 67 145
e 67 150
e 67 152
e 67 156
e 67 166
e 67 168
e 67 169
e 67 172
e 67 175
e 67 180
e 67 181
e 67 187
e 67 194
e 68 74
e 68 83
e 68 85
e 68 94
e 68 97
e 68 102
e 68 103
e 68 110
e 68 114
e 68 118
e 68 119
e 68 121
e 68 129
e 68 134
e 68 137
e 68 139
e 68 151
e 68 153
e 68 158
e 68 159
e 68 160
e 68 164
e 68 170
e 68 172
e 68 178
e 68 185
e 68 193
e 68 194
e 68 197
e 69 78
e 69 80
e 69 83
e 69 87
e 69 90
e 69 91
e 69 95
e 69 96
e 69 99
e 69 120
e 69 129
e 69 136
e 69 142
e 69 144
e 69 153
e 69 160
e 69 162
e 69 165
e 69 169
e 69 183
e 69 188
e 69 191
e 70 75
e 70 78
e 70 92
e 70 96
e 70 97
e 70 104
e 70 107
e 70 109
e 70 113
e 70 114
e 70 120
e 70 125
e 70 126
e 70 128
e 70 130
e 70 139
e 70 142
e 70 146
e 70 149
e 70 150
e 70 152
e 70 168
e 70 171
e 70 179
e 70 185
e 70 190
e 70 191
e 70 192
e 70 194
e 71 82
e 71 92
e 71 100
e 71 107
e 71 113
e 71 114
e 71 124
e 71 129
e 71 130
e 71 140
e 71 143
e 71 144
e 71 146
e 71 155
e 71 160
e 71 161
e 71 163
e 71 164
e 71 165
e 71 170
e 71 171
e 71 172
e 71 176
e 71 180
e 71 181
e 71 186
e 71 187
e 71 197
e 71 199
e 72 73
e 72 83
e 72 85
e 72 100
e 72 109
e 72 113
e 72 121
e 72 127
e 72 131
e 72 133
e 72 134
e 72 139
e 72 140
e 72 146
e 72 149
e 72 154
e 72 165
e 72 169
e 72 177
e 72 178
e 72 182
e 72 183
e 72 185
e 72 186
e 72 192
e 73 82
e 73 98
e 73 101
e 73 103
e 73 104
e 73 109
e 73 113
e 73 123
e 73 124
e 73 129
e 73 143
e 73 153
e 73 156
e 73 157
e 73 160
e 73 168
e 73 173
e 73 187
e 73 188
e 73 189
e 73 194
e 73 196
e 73 198
e 74 79
e 74 83
e 74 84
e 74 87
e 74 89
e 74 97
e 74 101
e 74 103
e 74 108
e 74 112
e 74 113
e 74 115
e 74 116
e 74 118
e 74 124
e 74 134
e 74 135
e 74 137
e 74 141
e 74 147
e 74 156
e 74 160
e 74 164
e 74 170
e 74 172
e 74 175
e 74 182
e 74 188
e 74 192
e 74 195
e 74 198
e 74 199
e 75 78
e 75 87
e 75 89
e 75 102
e 75 106
e 75 109
e 75 115
e 75 119
e 75 122
e 75 126
e 75 139
e 75 148
e 75 152
e 75 153
e 75 156
e 75 158
e 75 168
e 75 173
e 75 174
e 75 176
e 75 189
e 75 191
e 76 77
e 76 78
e 76 82
e 76 91
e 76 95
e 76 96
e 76 99
e 76 100
e 76 103
e 76 116
e 76 118
e 76 119
e 76 151
e 76 158
e 76 159
e 76 164
e 76 169
e 76 176
e 76 184
e 76 186
e 76 187
e 76 194
e 76 196
e 76 199
e 77 82
e 77 87
e 77 89
e 77 94
e 77 98
e 77 103
e 77 105
e 77 112
e 77 122
e 77 127
e 77 128
e 77 136
e 77 153
e 77 158
e 77 173
e 77 176
e 77 177
e 77 186
e 77 192
e 77 198
e 78 85
e 78 88
e 78 105
e 78 107
e 78 110
e 78 116
e 78 125
e 78 127
e 78 132
e 78 150
e 78 151
e 78 152
e 78 156
e 78 168
e 78 170
e 78 176
e 78 184
e 78 186
e 78 197
e 79 82
e 79 97
e 79 98
e 79 106
e 79 107
e 79 120
e 79 124
e 79 129
e 79 135
e 79 137
e 79 138
e 79 152
e 79 158
e 79 164
e 79 194
e 79 197
e 79 198
e 80 81
e 80 85
e 80 88
e 80 92
e 80 94
e 80 96
e 80 101
e 80 103
e 80 106
e 80 108
e 80 113
e 80 114
e 80 118
e 80 127
e 80 130
e 80 133
e 80 134
e 80 141
e 80 143
e 80 144
e 80 147
e 80 152
e 80 156
e 80 157
e 80 163
e 80 165
e 80 169
e 80 170
e 80 173
e 80 178
e 80 183
e 80 187
e 80 188
e 80 189
e 80 193
e 80 197
e 80 200
e 81 88
e 81 89
e 81 95
e 81 105
e 81 106
e 81 110
e 81 119
e 81 122
e 81 125
e 81 130
e 81 144
e 81 158
e 81 163
e 81 165
e 81 167
e 81 172
e 81 173
e 81 179
e 81 181
e 81 183
e 81 185
e 81 188
e 81 191
e 81 193
e 81 195
e 81 200
e 82 84
e 82 92
e 82 94
e 82 96
e 82 120
e 82 123
e 82 128
e 82 133
e 82 134
e 82 139
e 82 146
e 82 155
e 82 164
e 82 165
e 82 166
e 82 168
e 82 169
e 82 175
e 82 176
e 82 184
e 82 185
e 82 188
e 82 190
e 82 192
e 83 111
e 83 112
e 83 114
e 83 116
e 83 123
e 83 127
e 83 133
e 83 139
e 83 144
e 83 148
e 83 150
e 83 163
e 83 165
e 83 166
e 83 169
e 83 171
e 83 173
e 83 176
e 83 179
e 83 184
e 84 85
e 84 86
e 84 93
e 84 95
e 84 97
e 84 98
e 84 100
e 84 106
e 84 109
e 84 115
e 84 116
e 84 121
e 84 133
e 84 140
e 84 142
e 84 143
e 84 147
e 84 153
e 84 159
e 84 164
e 84 170
e 84 172
e 84 175
e 84 177
e 84 178
e 84 180
e 84 184
e 84 185
e 84 195
e 84 198
e 85 88
e 85 92
e 85 103
e 85 105
e 85 107
e 85 109
e 85 130
e 85 137
e 85 167
e 85 177
e 85 185
e 85 187
e 85 188
e 85 190
e 85 193
e 85 195
e 85 200
e 86 87
e 86 93
e 86 97
e 86 100
e 86 101
e 86 111
e 86 122
e 86 125
e 86 126
e 86 131
e 86 133
e 86 142
e 86 158
e 86 164
e 86 170
e 86 171
e 86 173
e 86 184
e 86 185
e 86 187
e 86 189
e 86 191
e 86 194
e 87 89
e 87 90
e 87 98
e 87 106
e 87 110
e 87 111
e 87 113
e 87 123
e 87 124
e 87 127
e 87 130
e 87 142
e 87 150
e 87 152
e 87 158
e 87 161
e 87 172
e 87 188
e 87 195
e 88 89
e 88 113
e 88 118
e 88 124
e 88 125
e 88 131
e 88 135
e 88 138
e 88 146
e 88 149
e 88 157
e 88 161
e 88 180
e 88 188
e 88 193
e 88 195
e 88 198
e 89 95
e 89 98
e 89 99
e 89 100
e 89 104
e 89 107
e 89 108
e 89 112
e 89 119
e 89 143
e 89 148
e 89 149
e 89 152
e 89 154
e 89 157
e 89 158
e 89 163
e 89 165
e 89 178
e 89 181
e 89 194
e 89 195
e 89 199
e 89 200
e 90 96
e 90 97
e 90 99
e 90 100
e 90 101
e 90 102
e 90 107
e 90 108
e 90 113
e 90 125
e 90 132
e 90 135
e 90 142
e 90 143
e 90 150
e 90 156
e 90 159
e 90 167
e 90 176
e 90 178
e 90 180
e 90 184
e 90 185
e 90 195
e 90 196
e 90 197
e 90 199
e 91 93
e 91 94
e 91 97
e 91 109
e 91 112
e 91 124
e 91 127
e 91 131
e 91 133
e 91 134
e 91 137
e 91 153
e 91 158
e 91 166
e 91 177
e 91 181
e 91 189
e 91 191
e 91 192
e 91 198
e 91 200
e 92 97
e 92 98
e 92 102
e 92 106
e 92 107
e 92 114
e 92 123
e 92 130
e 92 132
e 92 135
e 92 137
e 92 140
e 92 147
e 92 151
e 92 156
e 92 157
e 92 163
e 92 164
e 92 168
e 92 174
e 92 179
e 92 187
e 92 190
e 92 191
e 93 98
e 93 103
e 93 108
e 93 110
e 93 111
e 93 116
e 93 124
e 93 125
e 93 132
e 93 134
e 93 137
e 93 138
e 93 145
e 93 150
e 93 154
e 93 155
e 93 157
e 93 159
e 93 163
e 93 169
e 93 176
e 93 177
e 93 182
e 93 187
e 94 103
e 94 105
e 94 113
e 94 118
e 94 120
e 94 126
e 94 135
e 94 137
e 94 138
e 94 140
e 94 143
e 94 153
e 94 154
e 94 159
e 94 163
e 94 167
e 94 170
e 94 171
e 94 173
e 94 175
e 94 177
e 94 184
e 94 192
e 94 199
e 95 102
e 95 106
e 95 108
e 95 110
e 95 113
e 95 114
e 95 115
e 95 123
e 95 124
e 95 125
e 95 127
e 95 131
e 95 137
e 95 140
e 95 141
e 95 145
e 95 150
e 95 156
e 95 162
e 95 164
e 95 169
e 95 170
e 95 174
e 95 175
e 95 176
e 95 177
e 95 179
e 95 182
e 95 183
e 95 186
e 95 190
e 95 191
e 95 197
e 95 199
e 96 97
e 96 102
e 96 108
e 96 112
e 96 125
e 96 126
e 96 128
e 96 130
e 96 133
e 96 146
e 96 151
e 96 154
e 96 162
e 96 171
e 96 173
e 96 174
e 96 175
e 96 188
e 96 190
e 96 191
e 96 195
e 97 105
e 97 109
e 97 114
e 97 120
e 97 124
e 97 134
e 97 137
e 97 138
e 97 141
e 97 142
e 97 143
e 97 145
e 97 146
e 97 150
e 97 167
e 97 170
e 97 172
e 97 182
e 97 184
e 97 186
e 97 188
e 97 199
e 98 106
e 98 109
e 98 111
e 98 119
e 98 120
e 98 122
e 98 127
e 98 132
e 98 137
e 98 145
e 98 147
e 98 148
e 98 150
e 98 154
e 98 157
e 98 160
e 98 164
e 98 167
e 98 169
e 98 170
e 98 173
e 98 174
e 98 176
e 98 183
e 98 194
e 98 199
e 99 100
e 99 116
e 99 121
e 99 141
e 99 152
e 99 153
e 99 155
e 99 168
e 99 171
e 99 173
e 99 177
e 99 185
e 99 195
e 99 196
e 100 101
e 100 106
e 100 120
e 100 123
e 100 131
e 100 132
e 100 133
e 100 151
e 100 156
e 100 166
e 100 177
e 100 179
e 100 186
e 100 187
e 100 189
e 101 103
e 101 104
e 101 105
e 101 116
e 101 124
e 101 125
e 101 133
e 101 136
e 101 139
e 101 143
e 101 155
e 101 158
e 101 159
e 101 160
e 101 161
e 101 165
e 101 168
e 101 169
e 101 171
e 101 177
e 101 180
e 101 181
e 101 183
e 101 191
e 101 195
e 101 197
e 102 134
e 102 140
e 102 144
e 102 148
e 102 150
e 102 157
e 102 158
e 102 162
e 102 164
e 102 167
e 102 175
e 102 183
e 102 191
e 102 192
e 102 195
e 102 200
e 103 104
e 103 105
e 103 111
e 103 116
e 103 117
e 103 118
e 103 119
e 103 125
e 103 130
e 103 137
e 103 142
e 103 143
e 103 157
e 103 161
e 103 162
e 103 164
e 103 177
e 103 178
e 103 188
e 103 194
e 104 115
e 104 117
e 104 118
e 104 120
e 104 127
e 104 128
e 104 133
e 104 139
e 104 151
e 104 159
e 104 160
e 104 164
e 104 166
e 104 170
e 104 171
e 104 178
e 104 188
e 104 189
e 104 193
e 105 112
e 105 113
e 105 125
e 105 128
e 105 133
e 105 134
e 105 143
e 105 144
e 105 152
e 105 153
e 105 158
e 105 164
e 105 168
e 105 171
e 105 172
e 105 181
e 105 184
e 105 191
e 105 193
e 105 194
e 106 107
e 106 129
e 106 133
e 106 135
e 106 143
e 106 148
e 106 155
e 106 157
e 106 160
e 106 163
e 106 164
e 106 174
e 106 179
e 106 181
e 106 186
e 106 193
e 107 112
e 107 115
e 107 122
e 107 130
e 107 132
e 107 139
e 107 142
e 107 146
e 107 147
e 107 149
e 107 151
e 107 153
e 107 161
e 107 180
e 107 185
e 107 197
e 107 198
e 108 109
e 108 111
e 108 121
e 108 123
e 108 127
e 108 128
e 108 136
e 108 138
e 108 152
e 108 156
e 108 159
e 108 180
e 108 188
e 108 196
e 108 197
e 108 199
e 109 113
e 109 116
e 109 126
e 109 127
e 109 131
e 109 132
e 109 138
e 109 139
e 109 143
e 109 145
e 109 166
e 109 167
e 109 170
e 109 173
e 109 176
e 109 177
e 109 180
e 109 192
e 109 195
e 110 115
e 110 120
e 110 145
e 110 148
e 110 157
e 110 161
e 110 163
e 110 166
e 110 178
e 110 198
e 111 114
e 111 117
e 111 120
e 111 125
e 111 128
e 111 130
e 111 136
e 111 146
e 111 147
e 111 153
e 111 165
e 111 167
e 111 171
e 111 173
e 111 178
e 111 188
e 111 190
e 111 198
e 111 200
e 112 116
e 112 117
e 112 126
e 112 142
e 112 146
e 112 148
e 112 150
e 112 162
e 112 163
e 112 165
e 112 166
e 112 178
e 112 190
e 112 195
e 113 120
e 113 124
e 113 125
e 113 128
e 113 136
e 113 138
e 113 146
e 113 162
e 113 168
e 113 175
e 113 178
e 113 191
e 113 198
e 114 115
e 114 118
e 114 125
e 114 128
e 114 132
e 114 133
e 114 136
e 114 137
e 114 138
e 114 151
e 114 154
e 114 163
e 114 164
e 114 168
e 114 170
e 114 178
e 114 183
e 114 189
e 114 190
e 114 191
e 114 199
e 115 119
e 115 122
e 115 123
e 115 133
e 115 155
e 115 160
e 115 162
e 115 164
e 115 168
e 115 172
e 115 176
e 115 180
e 115 183
e 115 186
e 115 190
e 116 120
e 116 121
e 116 132
e 116 146
e 116 154
e 116 166
e 116 169
e 116 171
e 116 172
e 116 173
e 116 176
e 116 177
e 116 179
e 116 181
e 116 183
e 116 194
e 116 195
e 116 196
e 117 123
e 117 124
e 117 125
e 117 129
e 117 145
e 117 151
e 117 153
e 117 155
e 117 168
e 117 177
e 117 179
e 117 181
e 117 190
e 117 194
e 117 198
e 118 127
e 118 138
e 118 144
e 118 146
e 118 147
e 118 150
e 118 152
e 118 154
e 118 158
e 118 159
e 118 160
e 118 161
e 118 162
e 118 164
e 118 176
e 118 182
e 118 186
e 118 190
e 118 192
e 118 193
e 118 196
e 118 197
e 119 125
e 119 129
e 119 130
e 119 131
e 119 132
e 119 134
e 119 143
e 119 145
e 119 152
e 119 153
e 119 156
e 119 160
e 119 167
e 119 170
e 119 174
e 119 175
e 119 176
e 119 178
e 119 188
e 119 190
e 120 122
e 120 128
e 120 132
e 120 147
e 120 148
e 120 154
e 120 162
e 120 167
e 120 170
e 120 171
e 120 172
e 120 178
e 120 184
e 120 186
e 120 190
e 121 122
e 121 126
e 121 127
e 121 130
e 121 131
e 121 137
e 121 144
e 121 145
e 121 154
e 121 156
e 121 157
e 121 165
e 121 170
e 121 179
e 121 184
e 121 186
e 121 197
e 122 124
e 122 126
e 122 129
e 122 137
e 122 138
e 122 147
e 122 166
e 122 173
e 122 176
e 122 177
e 122 179
e 122 184
e 122 188
e 122 190
e 122 194
e 122 197
e 123 131
e 123 132
e 123 135
e 123 139
e 123 144
e 123 147
e 123 148
e 123 153
e 123 154
e 123 158
e 123 164
e 123 169
e 123 173
e 123 175
e 123 178
e 123 180
e 123 181
e 123 189
e 124 126
e 124 136
e 124 145
e 124 147
e 124 148
e 124 153
e 124 155
e 124 159
e 124 160
e 124 165
e 124 173
e 124 179
e 124 181
e 124 185
e 124 186
e 124 187
e 124 194
e 124 198
e 125 126
e 125 129
e 125 130
e 125 135
e 125 141
e 125 150
e 125 153
e 125 169
e 125 176
e 125 179
e 125 188
e 125 191
e 125 192
e 125 197
e 125 198
e 125 200
e 126 128
e 126 149
e 126 154
e 126 164
e 126 168
e 126 169
e 126 173
e 126 177
e 126 179
e 126 180
e 126 182
e 126 195
e 126 199
e 127 137
e 127 141
e 127 144
e 127 148
e 127 150
e 127 151
e 127 152
e 127 153
e 127 154
e 127 157
e 127 159
e 127 161
e 127 163
e 127 164
e 127 171
e 127 177
e 127 178
e 127 182
e 127 194
e 127 199
e 128 129
e 128 133
e 128 134
e 128 138
e 128 145
e 128 158
e 128 159
e 128 160
e 128 162
e 128 174
e 128 178
e 128 183
e 128 186
e 128 187
e 128 193
e 128 195
e 128 198
e 128 200
e 129 132
e 129 141
e 129 142
e 129 145
e 129 146
e 129 148
e 129 154
e 129 156
e 129 160
e 129 165
e 129 168
e 129 185
e 129 191
e 129 192
e 129 193
e 129 196
e 130 131
e 130 137
e 130 141
e 130 142
e 130 145
e 130 148
e 130 151
e 130 161
e 130 164
e 130 166
e 130 167
e 130 180
e 130 185
e 130 186
e 130 189
e 130 197
e 130 200
e 131 146
e 131 149
e 131 151
e 131 152
e 131 157
e 131 158
e 131 164
e 131 165
e 131 167
e 131 168
e 131 173
e 131 177
e 131 188
e 131 191
e 131 193
e 131 195
e 132 133
e 132 136
e 132 141
e 132 146
e 132 162
e 132 165
e 132 182
e 132 183
e 132 184
e 132 185
e 132 186
e 132 187
e 132 192
e 132 195
e 133 140
e 133 143
e 133 144
e 133 146
e 133 157
e 133 162
e 133 166
e 133 168
e 133 177
e 133 184
e 133 186
e 133 190
e 133 192
e 134 137
e 134 139
e 134 148
e 134 150
e 134 151
e 134 160
e 134 161
e 134 178
e 134 181
e 134 184
e 134 186
e 134 188
e 134 191
e 134 195
e 134 199
e 135 136
e 135 142
e 135 148
e 135 149
e 135 150
e 135 164
e 135 170
e 135 177
e 135 178
e 135 179
e 135 186
e 135 191
e 135 200
e 136 142
e 136 151
e 136 156
e 136 159
e 136 184
e 136 189
e 136 193
e 137 148
e 137 152
e 137 155
e 137 166
e 137 175
e 137 177
e 137 178
e 137 184
e 137 187
e 137 188
e 137 190
e 137 191
e 137 197
e 138 146
e 138 153
e 138 160
e 138 161
e 138 162
e 138 163
e 138 165
e 138 167
e 138 170
e 138 178
e 138 184
e 138 185
e 138 187
e 138 192
e 138 196
e 138 199
e 139 151
e 139 153
e 139 173
e 139 179
e 139 184
e 139 192
e 139 194
e 139 198
e 140 151
e 140 156
e 140 160
e 140 163
e 140 168
e 140 173
e 140 174
e 140 183
e 140 184
e 140 195
e 141 146
e 141 149
e 141 153
e 141 166
e 141 167
e 141 171
e 141 178
e 141 179
e 141 183
e 141 191
e 141 196
e 142 147
e 142 149
e 142 153
e 142 155
e 142 158
e 142 167
e 142 172
e 142 175
e 142 181
e 142 182
e 142 186
e 142 189
e 142 197
e 143 146
e 143 155
e 143 157
e 143 161
e 143 169
e 143 172
e 143 173
e 143 178
e 143 184
e 143 188
e 143 191
e 143 192
e 143 195
e 144 152
e 144 165
e 144 176
e 144 177
e 144 183
e 144 185
e 144 186
e 144 187
e 144 189
e 144 190
e 144 199
e 144 200
e 145 155
e 145 167
e 145 168
e 145 171
e 145 177
e 145 179
e 145 181
e 145 184
e 145 186
e 145 191
e 145 194
e 145 200
e 146 149
e 146 152
e 146 157
e 146 183
e 146 185
e 146 189
e 146 191
e 146 193
e 146 196
e 146 198
e 147 155
e 147 157
e 147 165
e 147 175
e 147 176
e 147 184
e 147 188
e 147 191
e 148 168
e 148 170
e 148 173
e 148 183
e 148 184
e 148 188
e 148 196
e 148 198
e 148 200
e 149 150
e 149 152
e 149 153
e 149 159
e 149 163
e 149 169
e 149 171
e 149 179
e 149 182
e 149 192
e 149 199
e 150 155
e 150 156
e 150 161
e 150 163
e 150 164
e 150 169
e 150 175
e 150 178
e 150 179
e 150 193
e 150 195
e 151 163
e 151 164
e 151 170
e 151 171
e 151 172
e 151 173
e 151 188
e 151 189
e 151 199
e 152 156
e 152 162
e 152 166
e 152 171
e 152 178
e 152 181
e 152 182
e 152 185
e 152 186
e 152 187
e 152 193
e 153 156
e 153 163
e 153 165
e 153 167
e 153 177
e 153 181
e 153 184
e 153 185
e 153 189
e 153 193
e 153 196
e 154 156
e 154 159
e 154 175
e 154 176
e 154 178
e 154 187
e 154 189
e 154 197
e 154 198
e 155 159
e 155 166
e 155 167
e 155 170
e 155 172
e 155 174
e 155 175
e 155 177
e 155 179
e 155 180
e 155 183
e 155 187
e 155 200
e 156 160
e 156 161
e 156 163
e 156 164
e 156 167
e 156 172
e 156 177
e 156 183
e 156 188
e 156 190
e 156 193
e 156 194
e 156 200
e 157 169
e 157 172
e 157 173
e 157 175
e 157 178
e 157 186
e 157 198
e 157 199
e 158 169
e 158 170
e 158 177
e 158 180
e 158 181
e 158 182
e 158 191
e 158 196
e 158 199
e 158 200
e 159 163
e 159 170
e 159 173
e 159 182
e 159 187
e 159 191
e 159 197
e 159 200
e 160 162
e 160 166
e 160 169
e 160 183
e 160 184
e 160 190
e 161 182
e 161 184
e 161 197
e 161 199
e 162 167
e 162 168
e 162 169
e 162 170
e 162 186
e 162 196
e 162 200
e 163 167
e 163 177
e 163 179
e 163 180
e 163 189
e 163 195
e 164 167
e 164 170
e 164 176
e 164 177
e 164 178
e 164 185
e 164 186
e 164 189
e 164 193
e 164 194
e 164 196
e 164 199
e 165 172
e 165 173
e 165 183
e 165 187
e 165 200
e 166 172
e 166 179
e 166 180
e 166 181
e 166 185
e 166 192
e 166 198
e 167 175
e 167 179
e 167 187
e 167 195
e 167 199
e 167 200
e 168 172
e 168 175
e 168 187
e 169 179
e 169 181
e 169 182
e 169 190
e 169 193
e 170 175
e 170 177
e 170 179
e 170 182
e 170 193
e 170 195
e 170 197
e 170 199
e 171 172
e 171 175
e 171 177
e 171 179
e 171 190
e 171 196
e 171 198
e 171 199
e 172 176
e 172 177
e 172 178
e 172 181
e 172 192
e 172 195
e 173 182
e 173 187
e 173 188
e 173 191
e 173 199
e 174 179
e 174 181
e 174 188
e 174 196
e 174 198
e 175 177
e 175 182
e 175 187
e 175 196
e 176 179
e 176 182
e 176 199
e 177 178
e 177 181
e 177 194
e 177 197
e 178 184
e 178 185
e 178 186
e 178 194
e 178 197
e 179 180
e 179 190
e 179 191
e 179 194
e 179 199
e 180 184
e 180 194
e 180 200
e 181 190
e 181 191
e 181 192
e 181 197
e 182 184
e 182 185
e 182 188
e 182 191
e 182 194
e 183 186
e 183 188
e 184 185
e 184 188
e 184 191
e 184 195
e 184 197
e 184 200
e 185 189
e 185 190
e 185 193
e 185 196
e 186 187
e 186 188
e 186 189
e 186 192
e 186 194
e 187 188
e 187 193
e 188 190
e 188 194
e 188 195
e 189 190
e 189 192
e 189 193
e 189 194
e 189 196
e 189 197
e 192 193
e 192 199
e 193 194
e 193 196
e 193 197
e 195 197
e 195 198
e 196 200
e 199 200
